136
10000
131
224
1239
288
541
458
1943
361
1884
415
424
1139
1845
485
1214
845
1475
853
2370
706
374
1041
439
1501
1771
1216
1123
1842
2499
1135
1181
452
1022
656
37
1461
1710
1718
486
455
398
928
2480
2078
1212
660
1290
729
575
2119
296
180
121
2148
2
2279
103
1182
1865
571
2054
1874
490
402
2350
1430
254
772
1832
2151
356
2189
2379
1899
680
1426
217
1048
633
1481
717
149
163
2297
2197
375
983
1799
179
987
797
2474
55
759
1059
1016
457
2376
821
603
1115
1928
1823
535
507
365
465
1832
2076
2108
1194
1963
494
1235
1238
1872
553
1103
1229
1334
306
1747
1778
1152
957
917
1150
878
1508
1248
690
1528
1170
276
36
1335
